&CONTROL
  calculation = 'scf',
  disk_io = 'none',
  outdir = './',
  prefix = 'pwscf',
  pseudo_dir = './',
  restart_mode = 'from_scratch',
  verbosity = 'high',
/
&SYSTEM
  degauss = 0.01,
  ecutwfc = 35.0,
  ibrav = 0,
  occupations = 'smearing',
  smearing = 'mv',
  nat = 1,
  ntyp = 1,
/
&ELECTRONS
  conv_thr = 1d-05,
  electron_maxstep = 500,
/
&IONS
/
&CELL
/
ATOMIC_SPECIES
  Al  26.9815 al_lda_v1.uspp.F.UPF
ATOMIC_POSITIONS crystal
  Al 0.000000 0.000000 0.000000
K_POINTS automatic
  12 12 12 0 0 0
CELL_PARAMETERS angstrom
  2.473329 0.000000 1.427977
  0.824443 2.331877 1.427977
  0.000000 0.000000 2.855955