&CONTROL
  calculation = 'relax',
  disk_io = 'none',
  outdir = './',
  prefix = 'pwscf',
  pseudo_dir = './',
  restart_mode = 'from_scratch',
  verbosity = 'high',
/
&SYSTEM
  degauss = 0.01,
  ecutwfc = 45,
  ibrav = 0,
  occupations = 'smearing',
  smearing = 'mv',
  nat = 1,
  ntyp = 1,
/
&ELECTRONS
  conv_thr = 1d-06,
  electron_maxstep = 500,
/
&IONS
/
&CELL
/
ATOMIC_SPECIES
  Al  26.9815 al_pbe_v1.uspp.F.UPF
ATOMIC_POSITIONS crystal
  Al 0.000000 0.000000 0.000000
K_POINTS automatic
  20 20 20 0 0 0
CELL_PARAMETERS angstrom
  2.349663 0.000000 1.356578
  0.783221 2.215283 1.356578
  0.000000 0.000000 2.713157