&CONTROL
  calculation = 'relax',
  disk_io = 'none',
  outdir = './',
  prefix = 'pwscf',
  pseudo_dir = './',
  restart_mode = 'from_scratch',
  verbosity = 'high',
/
&SYSTEM
  degauss = 0.0038,
  ecutwfc = 35,
  ibrav = 0,
  occupations = 'smearing',
  smearing = 'mv',
  nat = 1,
  ntyp = 1,
/
&ELECTRONS
  conv_thr = 1d-06,
  electron_maxstep = 500,
/
&IONS
/
&CELL
/
ATOMIC_SPECIES
  Si  28.0855 si_pbe_v1.uspp.F.UPF
ATOMIC_POSITIONS crystal
  Si 0.000000 0.000000 0.000000
K_POINTS automatic
  12 12 12 0 0 0
CELL_PARAMETERS angstrom
  2.454193 0.000000 1.416929
  0.818064 2.313835 1.416929
  0.000000 0.000000 2.833858